30 4
1 3 1 2 
5 7 3
20 0 3
22 1 4
12 16 1
21 1 3
22 3 3
9 13 3
18 22 4
3 5 4
11 12 2
1 4 3
7 9 4
2 4 2
22 0 2
7 10 1
5 8 2
6 8 1
20 0 1
10 13 4
14 16 2
16 20 3
6 10 2
21 1 3
4 7 3
4 6 4
6 11 3
13 15 4
9 12 1
12 14 3
7 10 2
